(set-logic QF_LRA)
(declare-fun x () Real)
(declare-fun y () Real)
(declare-fun z () Real)
(assert ( or ( < x 0) ( > x 0)))
(assert ( or ( > x 0) (= z 0)))
(assert (= (+ x y ) z ))
(check-sat)
(get-model)
